c description: Random 5-CNF over 15 variables and 45 clauses
c generator: CNFgen (0.9.0)
c copyright: (C) 2012-2020 Massimo Lauria <massimo.lauria@uniroma1.it>
c url: https://massimolauria.net/cnfgen
c
p cnf 15 45
-1 3 -6 9 14 0
4 5 7 -11 12 0
-2 -4 -5 7 10 0
-1 -2 5 -7 12 0
-3 -4 -9 -12 -13 0
1 -2 -4 9 -12 0
-3 4 10 11 -14 0
4 6 8 11 -13 0
1 2 4 -9 -11 0
-5 6 -7 14 15 0
2 3 -4 5 9 0
-2 -8 12 -13 -15 0
4 8 9 -11 13 0
-2 -6 9 -10 -11 0
2 9 -10 14 15 0
-2 3 -7 8 -12 0
1 -5 7 11 -15 0
-3 5 -7 10 -13 0
1 5 6 -11 12 0
-6 7 -8 -10 12 0
3 4 -5 9 12 0
-1 3 -5 -10 13 0
3 -6 -8 11 -12 0
1 -6 9 12 15 0
-2 -5 10 12 -14 0
-1 -4 6 13 -15 0
3 9 -11 12 -14 0
3 -6 -8 -11 14 0
-5 -6 8 -12 -15 0
-1 -3 -7 11 -13 0
-2 6 8 14 15 0
4 5 6 -9 -11 0
7 11 -12 -13 -15 0
-4 5 -6 7 8 0
-4 6 7 14 15 0
3 -7 8 9 15 0
3 -5 -6 8 13 0
-4 -6 -8 -9 -13 0
2 3 -5 -14 15 0
-1 3 -4 -7 -14 0
1 -4 5 -6 7 0
3 4 5 12 -14 0
-2 6 -10 -11 12 0
3 -5 -8 -10 14 0
-1 -9 -11 14 15 0